StudentsNr = 10;
InstructorsNr = 51;
DaysNr = 1;
SlotsPerDay = 10;
AvailabilitySlotsLenght = 5;
RoomNr = 2;
ProgrammNr = 2;
DegreeNr = 2;
RolesNr = 3;
CoursesNr = 10;
InstructorsProgramm = [{2}, {1}, {1}, {1}, {2}, {1, 2}, {1}, {1}, {2}, {1, 2}, {2}, {2}, {2}, {2}, {2}, {2}, {2}, {1, 2}, {1}, {2}, {1}, {1}, {1}, {1, 2}, {1}, {2}, {2}, {1}, {1, 2}, {2}, {1}, {1}, {1}, {1}, {1}, {1}, {1}, {1}, {1, 2}, {1}, {1, 2}, {1, 2}, {2}, {1}, {2}, {2}, {2}, {2}, {1, 2}, {1, 2}, {2}];
InstructorRolesPerProgramm = [|{2, 6, 10, 19, 23, 24, 29, 32, 35, 36, 38, 39, 40, 50}, {3, 4, 21, 22, 23, 25, 29, 37, 40, 41, 42, 50}, {3, 7, 19, 21, 24, 25, 32, 42}|{6, 9, 10, 11, 13, 14, 16, 17, 24, 26, 27, 29, 39, 43, 47, 50}, {14, 20, 29, 30, 41, 42, 43, 46, 48, 50, 51}, {9, 11, 14, 17, 20, 24, 27, 42, 43, 47, 48}|];
InstructorsAvailability = [|1, 1, |1, 1, |0, 1, |1, 0, |0, 1, |1, 1, |1, 1, |1, 1, |0, 0, |1, 0, |1, 1, |0, 1, |1, 1, |0, 1, |1, 1, |0, 1, |1, 1, |0, 0, |0, 0, |1, 1, |1, 1, |0, 1, |1, 1, |0, 1, |0, 1, |0, 0, |1, 1, |0, 1, |1, 1, |1, 1, |1, 0, |0, 0, |1, 1, |1, 1, |0, 0, |0, 1, |0, 1, |1, 0, |0, 1, |1, 0, |1, 1, |1, 1, |0, 1, |0, 1, |0, 0, |0, 1, |1, 1, |0, 1, |0, 0, |0, 1, |0, 1|];
StudentsProgramm = [1, 2, 1, 1, 1, 2, 1, 1, 2, 2];
StudentsDegree = [1, 1, 1, 2, 2, 1, 2, 1, 2, 2];
StudentsSupervisorId = [7, 43, 39, 2, 34, 26, 2, 36, 15, 43];
StudentsCourseIds = [{1, 4, 5, 6, 7, 8, 10}, {1, 2, 3, 4, 5, 7, 8}, {1, 2, 4, 5, 6, 8, 10}, {1, 4, 8, 9, 10}, {5, 6, 7, 9, 10}, {2, 3, 6, 7, 8, 9, 10}, {2, 6, 7, 8, 9}, {1, 2, 4, 5, 8, 9, 10}, {1, 3, 4, 5, 7}, {1, 3, 7, 8, 9}];
StudentsAvailability = [|0, 0, |0, 1, |1, 1, |1, 1, |1, 1, |0, 0, |0, 1, |1, 1, |1, 1, |1, 1|];
TheoryticalMinCard = [1, 1, 0, 0, 1, 1, 1, 0, 1, 1];
CoursesInstructorIds = [{3, 22, 36, 39, 40}, {2, 3, 4, 5, 6, 7, 8, 12, 13, 14, 16, 18, 21, 23, 24, 25, 26, 28, 30, 34, 39, 40, 41, 43, 44, 46, 47, 50, 51}, {4, 5, 8, 9, 13, 15, 16, 17, 18, 23, 27, 29, 33, 34, 40, 41, 42, 43, 44, 45, 47, 48, 50, 51}, {1, 3, 4, 7, 9, 10, 12, 14, 28, 30, 32, 33, 34, 36, 38, 39, 40, 42, 45, 49}, {1, 2, 5, 7, 9, 10, 11, 13, 14, 15, 16, 17, 19, 20, 21, 23, 24, 28, 32, 33, 37, 38, 39, 40, 41, 42, 43, 47, 49, 50, 51}, {7, 8, 12, 16, 26, 37, 39, 41}, {49}, {1, 3, 4, 5, 6, 7, 8, 9, 10, 11, 14, 17, 19, 20, 22, 24, 28, 30, 31, 32, 33, 34, 38, 40, 43, 45, 47, 50, 51}, {2, 5, 9, 11, 14, 16, 20, 22, 24, 27, 28, 31, 33, 34, 35, 39, 41, 43, 44, 46, 51}, {4, 15, 16, 19, 22, 25, 29, 32, 34, 36, 38, 40, 41, 46}];
RolesDemands = [6, 11, 5];
RolesContinuity = [2, 1];
ExamLen = [1, 1, 1, 2, 2, 1, 2, 1, 2, 2];
LunchTsMinLen = 0;
LunchStarts = [4..6];
SupervisorAvailable = 5;
OptimalLunchLenght = [3, 1];
OptimalStartTs = [0, 0];
OptimalFinishTs = [0, 10];
MinimizeRooms = 0;
RolesSoftContinuity = [|1, 2, 3|1, 3, 4|];
SameDegreeInRoom = 0;
Mergeability = 2;
